(set-info :category "industrial")
(set-info :status sat)
(declare-fun x00 () (_ BitVec 8))
(declare-fun x02 () (_ BitVec 8))
(declare-fun x04 () (_ BitVec 8))
(declare-fun x05 () (_ BitVec 8))
(declare-fun x07 () (_ BitVec 8))
(declare-fun x08 () (_ BitVec 8))
(declare-fun x10 () (_ BitVec 8))
(declare-fun x11 () (_ BitVec 8))
(declare-fun x14 () (_ BitVec 8))
(declare-fun x16 () (_ BitVec 8))
(declare-fun x18 () (_ BitVec 8))
(declare-fun x21 () (_ BitVec 8))
(declare-fun x23 () (_ BitVec 8))
(declare-fun x25 () (_ BitVec 8))
(declare-fun x26 () (_ BitVec 8))
(declare-fun x27 () (_ BitVec 8))
(declare-fun x28 () (_ BitVec 8))
(declare-fun x30 () (_ BitVec 8))
(declare-fun x33 () (_ BitVec 8))
(declare-fun x34 () (_ BitVec 8))
(declare-fun x35 () (_ BitVec 8))
(declare-fun x36 () (_ BitVec 8))
(declare-fun x41 () (_ BitVec 8))
(declare-fun x42 () (_ BitVec 8))
(declare-fun x43 () (_ BitVec 8))
(declare-fun x47 () (_ BitVec 8))
(declare-fun x50 () (_ BitVec 8))
(declare-fun x54 () (_ BitVec 8))
(declare-fun x56 () (_ BitVec 8))
(declare-fun x57 () (_ BitVec 8))
(declare-fun x58 () (_ BitVec 8))
(declare-fun x62 () (_ BitVec 8))
(declare-fun x63 () (_ BitVec 8))
(declare-fun x66 () (_ BitVec 8))
(declare-fun x68 () (_ BitVec 8))
(declare-fun x70 () (_ BitVec 8))
(declare-fun x71 () (_ BitVec 8))
(declare-fun x72 () (_ BitVec 8))
(declare-fun x73 () (_ BitVec 8))
(declare-fun x74 () (_ BitVec 8))
(declare-fun x76 () (_ BitVec 8))
(declare-fun x78 () (_ BitVec 8))
(declare-fun x80 () (_ BitVec 8))
(declare-fun x82 () (_ BitVec 8))
(declare-fun x84 () (_ BitVec 8))
(declare-fun x85 () (_ BitVec 8))
(declare-fun x87 () (_ BitVec 8))
(declare-fun x88 () (_ BitVec 8))
(assert (bvult x00 (_ bv9 8)))
(assert (bvult x02 (_ bv9 8)))
(assert (bvult x04 (_ bv9 8)))
(assert (bvult x05 (_ bv9 8)))
(assert (bvult x07 (_ bv9 8)))
(assert (bvult x08 (_ bv9 8)))
(assert (bvult x10 (_ bv9 8)))
(assert (bvult x11 (_ bv9 8)))
(assert (bvult x14 (_ bv9 8)))
(assert (bvult x16 (_ bv9 8)))
(assert (bvult x18 (_ bv9 8)))
(assert (bvult x21 (_ bv9 8)))
(assert (bvult x23 (_ bv9 8)))
(assert (bvult x25 (_ bv9 8)))
(assert (bvult x26 (_ bv9 8)))
(assert (bvult x27 (_ bv9 8)))
(assert (bvult x28 (_ bv9 8)))
(assert (bvult x30 (_ bv9 8)))
(assert (bvult x33 (_ bv9 8)))
(assert (bvult x34 (_ bv9 8)))
(assert (bvult x35 (_ bv9 8)))
(assert (bvult x36 (_ bv9 8)))
(assert (bvult x41 (_ bv9 8)))
(assert (bvult x42 (_ bv9 8)))
(assert (bvult x43 (_ bv9 8)))
(assert (bvult x47 (_ bv9 8)))
(assert (bvult x50 (_ bv9 8)))
(assert (bvult x54 (_ bv9 8)))
(assert (bvult x56 (_ bv9 8)))
(assert (bvult x57 (_ bv9 8)))
(assert (bvult x58 (_ bv9 8)))
(assert (bvult x62 (_ bv9 8)))
(assert (bvult x63 (_ bv9 8)))
(assert (bvult x66 (_ bv9 8)))
(assert (bvult x68 (_ bv9 8)))
(assert (bvult x70 (_ bv9 8)))
(assert (bvult x71 (_ bv9 8)))
(assert (bvult x72 (_ bv9 8)))
(assert (bvult x73 (_ bv9 8)))
(assert (bvult x74 (_ bv9 8)))
(assert (bvult x76 (_ bv9 8)))
(assert (bvult x78 (_ bv9 8)))
(assert (bvult x80 (_ bv9 8)))
(assert (bvult x82 (_ bv9 8)))
(assert (bvult x84 (_ bv9 8)))
(assert (bvult x85 (_ bv9 8)))
(assert (bvult x87 (_ bv9 8)))
(assert (bvult x88 (_ bv9 8)))
(assert (not (= x00 (_ bv8 8))))
(assert (not (= x00 x02)))
(assert (not (= x00 (_ bv7 8))))
(assert (not (= x00 x04)))
(assert (not (= x00 x05)))
(assert (not (= x00 (_ bv4 8))))
(assert (not (= x00 x07)))
(assert (not (= x00 x08)))
(assert (not (= (_ bv8 8) x02)))
(assert (not (= (_ bv8 8) (_ bv7 8))))
(assert (not (= (_ bv8 8) x04)))
(assert (not (= (_ bv8 8) x05)))
(assert (not (= (_ bv8 8) (_ bv4 8))))
(assert (not (= (_ bv8 8) x07)))
(assert (not (= (_ bv8 8) x08)))
(assert (not (= x02 (_ bv7 8))))
(assert (not (= x02 x04)))
(assert (not (= x02 x05)))
(assert (not (= x02 (_ bv4 8))))
(assert (not (= x02 x07)))
(assert (not (= x02 x08)))
(assert (not (= (_ bv7 8) x04)))
(assert (not (= (_ bv7 8) x05)))
(assert (not (= (_ bv7 8) (_ bv4 8))))
(assert (not (= (_ bv7 8) x07)))
(assert (not (= (_ bv7 8) x08)))
(assert (not (= x04 x05)))
(assert (not (= x04 (_ bv4 8))))
(assert (not (= x04 x07)))
(assert (not (= x04 x08)))
(assert (not (= x05 (_ bv4 8))))
(assert (not (= x05 x07)))
(assert (not (= x05 x08)))
(assert (not (= (_ bv4 8) x07)))
(assert (not (= (_ bv4 8) x08)))
(assert (not (= x07 x08)))
(assert (not (= x10 x11)))
(assert (not (= x10 (_ bv3 8))))
(assert (not (= x10 (_ bv9 8))))
(assert (not (= x10 x14)))
(assert (not (= x10 (_ bv8 8))))
(assert (not (= x10 x16)))
(assert (not (= x10 (_ bv6 8))))
(assert (not (= x10 x18)))
(assert (not (= x11 (_ bv3 8))))
(assert (not (= x11 (_ bv9 8))))
(assert (not (= x11 x14)))
(assert (not (= x11 (_ bv8 8))))
(assert (not (= x11 x16)))
(assert (not (= x11 (_ bv6 8))))
(assert (not (= x11 x18)))
(assert (not (= (_ bv3 8) (_ bv9 8))))
(assert (not (= (_ bv3 8) x14)))
(assert (not (= (_ bv3 8) (_ bv8 8))))
(assert (not (= (_ bv3 8) x16)))
(assert (not (= (_ bv3 8) (_ bv6 8))))
(assert (not (= (_ bv3 8) x18)))
(assert (not (= (_ bv9 8) x14)))
(assert (not (= (_ bv9 8) (_ bv8 8))))
(assert (not (= (_ bv9 8) x16)))
(assert (not (= (_ bv9 8) (_ bv6 8))))
(assert (not (= (_ bv9 8) x18)))
(assert (not (= x14 (_ bv8 8))))
(assert (not (= x14 x16)))
(assert (not (= x14 (_ bv6 8))))
(assert (not (= x14 x18)))
(assert (not (= (_ bv8 8) x16)))
(assert (not (= (_ bv8 8) (_ bv6 8))))
(assert (not (= (_ bv8 8) x18)))
(assert (not (= x16 (_ bv6 8))))
(assert (not (= x16 x18)))
(assert (not (= (_ bv6 8) x18)))
(assert (not (= (_ bv5 8) x21)))
(assert (not (= (_ bv5 8) (_ bv6 8))))
(assert (not (= (_ bv5 8) x23)))
(assert (not (= (_ bv5 8) (_ bv1 8))))
(assert (not (= (_ bv5 8) x25)))
(assert (not (= (_ bv5 8) x26)))
(assert (not (= (_ bv5 8) x27)))
(assert (not (= (_ bv5 8) x28)))
(assert (not (= x21 (_ bv6 8))))
(assert (not (= x21 x23)))
(assert (not (= x21 (_ bv1 8))))
(assert (not (= x21 x25)))
(assert (not (= x21 x26)))
(assert (not (= x21 x27)))
(assert (not (= x21 x28)))
(assert (not (= (_ bv6 8) x23)))
(assert (not (= (_ bv6 8) (_ bv1 8))))
(assert (not (= (_ bv6 8) x25)))
(assert (not (= (_ bv6 8) x26)))
(assert (not (= (_ bv6 8) x27)))
(assert (not (= (_ bv6 8) x28)))
(assert (not (= x23 (_ bv1 8))))
(assert (not (= x23 x25)))
(assert (not (= x23 x26)))
(assert (not (= x23 x27)))
(assert (not (= x23 x28)))
(assert (not (= (_ bv1 8) x25)))
(assert (not (= (_ bv1 8) x26)))
(assert (not (= (_ bv1 8) x27)))
(assert (not (= (_ bv1 8) x28)))
(assert (not (= x25 x26)))
(assert (not (= x25 x27)))
(assert (not (= x25 x28)))
(assert (not (= x26 x27)))
(assert (not (= x26 x28)))
(assert (not (= x27 x28)))
(assert (not (= x30 (_ bv9 8))))
(assert (not (= x30 (_ bv4 8))))
(assert (not (= x30 x33)))
(assert (not (= x30 x34)))
(assert (not (= x30 x35)))
(assert (not (= x30 x36)))
(assert (not (= x30 (_ bv2 8))))
(assert (not (= x30 (_ bv8 8))))
(assert (not (= (_ bv9 8) (_ bv4 8))))
(assert (not (= (_ bv9 8) x33)))
(assert (not (= (_ bv9 8) x34)))
(assert (not (= (_ bv9 8) x35)))
(assert (not (= (_ bv9 8) x36)))
(assert (not (= (_ bv9 8) (_ bv2 8))))
(assert (not (= (_ bv9 8) (_ bv8 8))))
(assert (not (= (_ bv4 8) x33)))
(assert (not (= (_ bv4 8) x34)))
(assert (not (= (_ bv4 8) x35)))
(assert (not (= (_ bv4 8) x36)))
(assert (not (= (_ bv4 8) (_ bv2 8))))
(assert (not (= (_ bv4 8) (_ bv8 8))))
(assert (not (= x33 x34)))
(assert (not (= x33 x35)))
(assert (not (= x33 x36)))
(assert (not (= x33 (_ bv2 8))))
(assert (not (= x33 (_ bv8 8))))
(assert (not (= x34 x35)))
(assert (not (= x34 x36)))
(assert (not (= x34 (_ bv2 8))))
(assert (not (= x34 (_ bv8 8))))
(assert (not (= x35 x36)))
(assert (not (= x35 (_ bv2 8))))
(assert (not (= x35 (_ bv8 8))))
(assert (not (= x36 (_ bv2 8))))
(assert (not (= x36 (_ bv8 8))))
(assert (not (= (_ bv2 8) (_ bv8 8))))
(assert (not (= (_ bv3 8) x41)))
(assert (not (= (_ bv3 8) x42)))
(assert (not (= (_ bv3 8) x43)))
(assert (not (= (_ bv3 8) (_ bv2 8))))
(assert (not (= (_ bv3 8) (_ bv4 8))))
(assert (not (= (_ bv3 8) (_ bv1 8))))
(assert (not (= (_ bv3 8) x47)))
(assert (not (= (_ bv3 8) (_ bv9 8))))
(assert (not (= x41 x42)))
(assert (not (= x41 x43)))
(assert (not (= x41 (_ bv2 8))))
(assert (not (= x41 (_ bv4 8))))
(assert (not (= x41 (_ bv1 8))))
(assert (not (= x41 x47)))
(assert (not (= x41 (_ bv9 8))))
(assert (not (= x42 x43)))
(assert (not (= x42 (_ bv2 8))))
(assert (not (= x42 (_ bv4 8))))
(assert (not (= x42 (_ bv1 8))))
(assert (not (= x42 x47)))
(assert (not (= x42 (_ bv9 8))))
(assert (not (= x43 (_ bv2 8))))
(assert (not (= x43 (_ bv4 8))))
(assert (not (= x43 (_ bv1 8))))
(assert (not (= x43 x47)))
(assert (not (= x43 (_ bv9 8))))
(assert (not (= (_ bv2 8) (_ bv4 8))))
(assert (not (= (_ bv2 8) (_ bv1 8))))
(assert (not (= (_ bv2 8) x47)))
(assert (not (= (_ bv2 8) (_ bv9 8))))
(assert (not (= (_ bv4 8) (_ bv1 8))))
(assert (not (= (_ bv4 8) x47)))
(assert (not (= (_ bv4 8) (_ bv9 8))))
(assert (not (= (_ bv1 8) x47)))
(assert (not (= (_ bv1 8) (_ bv9 8))))
(assert (not (= x47 (_ bv9 8))))
(assert (not (= x50 (_ bv7 8))))
(assert (not (= x50 (_ bv8 8))))
(assert (not (= x50 (_ bv3 8))))
(assert (not (= x50 x54)))
(assert (not (= x50 (_ bv1 8))))
(assert (not (= x50 x56)))
(assert (not (= x50 x57)))
(assert (not (= x50 x58)))
(assert (not (= (_ bv7 8) (_ bv8 8))))
(assert (not (= (_ bv7 8) (_ bv3 8))))
(assert (not (= (_ bv7 8) x54)))
(assert (not (= (_ bv7 8) (_ bv1 8))))
(assert (not (= (_ bv7 8) x56)))
(assert (not (= (_ bv7 8) x57)))
(assert (not (= (_ bv7 8) x58)))
(assert (not (= (_ bv8 8) (_ bv3 8))))
(assert (not (= (_ bv8 8) x54)))
(assert (not (= (_ bv8 8) (_ bv1 8))))
(assert (not (= (_ bv8 8) x56)))
(assert (not (= (_ bv8 8) x57)))
(assert (not (= (_ bv8 8) x58)))
(assert (not (= (_ bv3 8) x54)))
(assert (not (= (_ bv3 8) (_ bv1 8))))
(assert (not (= (_ bv3 8) x56)))
(assert (not (= (_ bv3 8) x57)))
(assert (not (= (_ bv3 8) x58)))
(assert (not (= x54 (_ bv1 8))))
(assert (not (= x54 x56)))
(assert (not (= x54 x57)))
(assert (not (= x54 x58)))
(assert (not (= (_ bv1 8) x56)))
(assert (not (= (_ bv1 8) x57)))
(assert (not (= (_ bv1 8) x58)))
(assert (not (= x56 x57)))
(assert (not (= x56 x58)))
(assert (not (= x57 x58)))
(assert (not (= (_ bv6 8) (_ bv1 8))))
(assert (not (= (_ bv6 8) x62)))
(assert (not (= (_ bv6 8) x63)))
(assert (not (= (_ bv6 8) (_ bv3 8))))
(assert (not (= (_ bv6 8) (_ bv2 8))))
(assert (not (= (_ bv6 8) x66)))
(assert (not (= (_ bv6 8) (_ bv8 8))))
(assert (not (= (_ bv6 8) x68)))
(assert (not (= (_ bv1 8) x62)))
(assert (not (= (_ bv1 8) x63)))
(assert (not (= (_ bv1 8) (_ bv3 8))))
(assert (not (= (_ bv1 8) (_ bv2 8))))
(assert (not (= (_ bv1 8) x66)))
(assert (not (= (_ bv1 8) (_ bv8 8))))
(assert (not (= (_ bv1 8) x68)))
(assert (not (= x62 x63)))
(assert (not (= x62 (_ bv3 8))))
(assert (not (= x62 (_ bv2 8))))
(assert (not (= x62 x66)))
(assert (not (= x62 (_ bv8 8))))
(assert (not (= x62 x68)))
(assert (not (= x63 (_ bv3 8))))
(assert (not (= x63 (_ bv2 8))))
(assert (not (= x63 x66)))
(assert (not (= x63 (_ bv8 8))))
(assert (not (= x63 x68)))
(assert (not (= (_ bv3 8) (_ bv2 8))))
(assert (not (= (_ bv3 8) x66)))
(assert (not (= (_ bv3 8) (_ bv8 8))))
(assert (not (= (_ bv3 8) x68)))
(assert (not (= (_ bv2 8) x66)))
(assert (not (= (_ bv2 8) (_ bv8 8))))
(assert (not (= (_ bv2 8) x68)))
(assert (not (= x66 (_ bv8 8))))
(assert (not (= x66 x68)))
(assert (not (= (_ bv8 8) x68)))
(assert (not (= x70 x71)))
(assert (not (= x70 x72)))
(assert (not (= x70 x73)))
(assert (not (= x70 x74)))
(assert (not (= x70 (_ bv6 8))))
(assert (not (= x70 x76)))
(assert (not (= x70 (_ bv4 8))))
(assert (not (= x70 x78)))
(assert (not (= x71 x72)))
(assert (not (= x71 x73)))
(assert (not (= x71 x74)))
(assert (not (= x71 (_ bv6 8))))
(assert (not (= x71 x76)))
(assert (not (= x71 (_ bv4 8))))
(assert (not (= x71 x78)))
(assert (not (= x72 x73)))
(assert (not (= x72 x74)))
(assert (not (= x72 (_ bv6 8))))
(assert (not (= x72 x76)))
(assert (not (= x72 (_ bv4 8))))
(assert (not (= x72 x78)))
(assert (not (= x73 x74)))
(assert (not (= x73 (_ bv6 8))))
(assert (not (= x73 x76)))
(assert (not (= x73 (_ bv4 8))))
(assert (not (= x73 x78)))
(assert (not (= x74 (_ bv6 8))))
(assert (not (= x74 x76)))
(assert (not (= x74 (_ bv4 8))))
(assert (not (= x74 x78)))
(assert (not (= (_ bv6 8) x76)))
(assert (not (= (_ bv6 8) (_ bv4 8))))
(assert (not (= (_ bv6 8) x78)))
(assert (not (= x76 (_ bv4 8))))
(assert (not (= x76 x78)))
(assert (not (= (_ bv4 8) x78)))
(assert (not (= x80 (_ bv3 8))))
(assert (not (= x80 x82)))
(assert (not (= x80 (_ bv5 8))))
(assert (not (= x80 x84)))
(assert (not (= x80 x85)))
(assert (not (= x80 (_ bv7 8))))
(assert (not (= x80 x87)))
(assert (not (= x80 x88)))
(assert (not (= (_ bv3 8) x82)))
(assert (not (= (_ bv3 8) (_ bv5 8))))
(assert (not (= (_ bv3 8) x84)))
(assert (not (= (_ bv3 8) x85)))
(assert (not (= (_ bv3 8) (_ bv7 8))))
(assert (not (= (_ bv3 8) x87)))
(assert (not (= (_ bv3 8) x88)))
(assert (not (= x82 (_ bv5 8))))
(assert (not (= x82 x84)))
(assert (not (= x82 x85)))
(assert (not (= x82 (_ bv7 8))))
(assert (not (= x82 x87)))
(assert (not (= x82 x88)))
(assert (not (= (_ bv5 8) x84)))
(assert (not (= (_ bv5 8) x85)))
(assert (not (= (_ bv5 8) (_ bv7 8))))
(assert (not (= (_ bv5 8) x87)))
(assert (not (= (_ bv5 8) x88)))
(assert (not (= x84 x85)))
(assert (not (= x84 (_ bv7 8))))
(assert (not (= x84 x87)))
(assert (not (= x84 x88)))
(assert (not (= x85 (_ bv7 8))))
(assert (not (= x85 x87)))
(assert (not (= x85 x88)))
(assert (not (= (_ bv7 8) x87)))
(assert (not (= (_ bv7 8) x88)))
(assert (not (= x87 x88)))
(assert (not (= x00 x10)))
(assert (not (= x00 (_ bv5 8))))
(assert (not (= x00 x30)))
(assert (not (= x00 (_ bv3 8))))
(assert (not (= x00 x50)))
(assert (not (= x00 (_ bv6 8))))
(assert (not (= x00 x70)))
(assert (not (= x00 x80)))
(assert (not (= x10 (_ bv5 8))))
(assert (not (= x10 x30)))
(assert (not (= x10 (_ bv3 8))))
(assert (not (= x10 x50)))
(assert (not (= x10 (_ bv6 8))))
(assert (not (= x10 x70)))
(assert (not (= x10 x80)))
(assert (not (= (_ bv5 8) x30)))
(assert (not (= (_ bv5 8) (_ bv3 8))))
(assert (not (= (_ bv5 8) x50)))
(assert (not (= (_ bv5 8) (_ bv6 8))))
(assert (not (= (_ bv5 8) x70)))
(assert (not (= (_ bv5 8) x80)))
(assert (not (= x30 (_ bv3 8))))
(assert (not (= x30 x50)))
(assert (not (= x30 (_ bv6 8))))
(assert (not (= x30 x70)))
(assert (not (= x30 x80)))
(assert (not (= (_ bv3 8) x50)))
(assert (not (= (_ bv3 8) (_ bv6 8))))
(assert (not (= (_ bv3 8) x70)))
(assert (not (= (_ bv3 8) x80)))
(assert (not (= x50 (_ bv6 8))))
(assert (not (= x50 x70)))
(assert (not (= x50 x80)))
(assert (not (= (_ bv6 8) x70)))
(assert (not (= (_ bv6 8) x80)))
(assert (not (= x70 x80)))
(assert (not (= (_ bv8 8) x11)))
(assert (not (= (_ bv8 8) x21)))
(assert (not (= (_ bv8 8) (_ bv9 8))))
(assert (not (= (_ bv8 8) x41)))
(assert (not (= (_ bv8 8) (_ bv7 8))))
(assert (not (= (_ bv8 8) (_ bv1 8))))
(assert (not (= (_ bv8 8) x71)))
(assert (not (= (_ bv8 8) (_ bv3 8))))
(assert (not (= x11 x21)))
(assert (not (= x11 (_ bv9 8))))
(assert (not (= x11 x41)))
(assert (not (= x11 (_ bv7 8))))
(assert (not (= x11 (_ bv1 8))))
(assert (not (= x11 x71)))
(assert (not (= x11 (_ bv3 8))))
(assert (not (= x21 (_ bv9 8))))
(assert (not (= x21 x41)))
(assert (not (= x21 (_ bv7 8))))
(assert (not (= x21 (_ bv1 8))))
(assert (not (= x21 x71)))
(assert (not (= x21 (_ bv3 8))))
(assert (not (= (_ bv9 8) x41)))
(assert (not (= (_ bv9 8) (_ bv7 8))))
(assert (not (= (_ bv9 8) (_ bv1 8))))
(assert (not (= (_ bv9 8) x71)))
(assert (not (= (_ bv9 8) (_ bv3 8))))
(assert (not (= x41 (_ bv7 8))))
(assert (not (= x41 (_ bv1 8))))
(assert (not (= x41 x71)))
(assert (not (= x41 (_ bv3 8))))
(assert (not (= (_ bv7 8) (_ bv1 8))))
(assert (not (= (_ bv7 8) x71)))
(assert (not (= (_ bv7 8) (_ bv3 8))))
(assert (not (= (_ bv1 8) x71)))
(assert (not (= (_ bv1 8) (_ bv3 8))))
(assert (not (= x71 (_ bv3 8))))
(assert (not (= x02 (_ bv3 8))))
(assert (not (= x02 (_ bv6 8))))
(assert (not (= x02 (_ bv4 8))))
(assert (not (= x02 x42)))
(assert (not (= x02 (_ bv8 8))))
(assert (not (= x02 x62)))
(assert (not (= x02 x72)))
(assert (not (= x02 x82)))
(assert (not (= (_ bv3 8) (_ bv6 8))))
(assert (not (= (_ bv3 8) (_ bv4 8))))
(assert (not (= (_ bv3 8) x42)))
(assert (not (= (_ bv3 8) (_ bv8 8))))
(assert (not (= (_ bv3 8) x62)))
(assert (not (= (_ bv3 8) x72)))
(assert (not (= (_ bv3 8) x82)))
(assert (not (= (_ bv6 8) (_ bv4 8))))
(assert (not (= (_ bv6 8) x42)))
(assert (not (= (_ bv6 8) (_ bv8 8))))
(assert (not (= (_ bv6 8) x62)))
(assert (not (= (_ bv6 8) x72)))
(assert (not (= (_ bv6 8) x82)))
(assert (not (= (_ bv4 8) x42)))
(assert (not (= (_ bv4 8) (_ bv8 8))))
(assert (not (= (_ bv4 8) x62)))
(assert (not (= (_ bv4 8) x72)))
(assert (not (= (_ bv4 8) x82)))
(assert (not (= x42 (_ bv8 8))))
(assert (not (= x42 x62)))
(assert (not (= x42 x72)))
(assert (not (= x42 x82)))
(assert (not (= (_ bv8 8) x62)))
(assert (not (= (_ bv8 8) x72)))
(assert (not (= (_ bv8 8) x82)))
(assert (not (= x62 x72)))
(assert (not (= x62 x82)))
(assert (not (= x72 x82)))
(assert (not (= (_ bv7 8) (_ bv9 8))))
(assert (not (= (_ bv7 8) x23)))
(assert (not (= (_ bv7 8) x33)))
(assert (not (= (_ bv7 8) x43)))
(assert (not (= (_ bv7 8) (_ bv3 8))))
(assert (not (= (_ bv7 8) x63)))
(assert (not (= (_ bv7 8) x73)))
(assert (not (= (_ bv7 8) (_ bv5 8))))
(assert (not (= (_ bv9 8) x23)))
(assert (not (= (_ bv9 8) x33)))
(assert (not (= (_ bv9 8) x43)))
(assert (not (= (_ bv9 8) (_ bv3 8))))
(assert (not (= (_ bv9 8) x63)))
(assert (not (= (_ bv9 8) x73)))
(assert (not (= (_ bv9 8) (_ bv5 8))))
(assert (not (= x23 x33)))
(assert (not (= x23 x43)))
(assert (not (= x23 (_ bv3 8))))
(assert (not (= x23 x63)))
(assert (not (= x23 x73)))
(assert (not (= x23 (_ bv5 8))))
(assert (not (= x33 x43)))
(assert (not (= x33 (_ bv3 8))))
(assert (not (= x33 x63)))
(assert (not (= x33 x73)))
(assert (not (= x33 (_ bv5 8))))
(assert (not (= x43 (_ bv3 8))))
(assert (not (= x43 x63)))
(assert (not (= x43 x73)))
(assert (not (= x43 (_ bv5 8))))
(assert (not (= (_ bv3 8) x63)))
(assert (not (= (_ bv3 8) x73)))
(assert (not (= (_ bv3 8) (_ bv5 8))))
(assert (not (= x63 x73)))
(assert (not (= x63 (_ bv5 8))))
(assert (not (= x73 (_ bv5 8))))
(assert (not (= x04 x14)))
(assert (not (= x04 (_ bv1 8))))
(assert (not (= x04 x34)))
(assert (not (= x04 (_ bv2 8))))
(assert (not (= x04 x54)))
(assert (not (= x04 (_ bv3 8))))
(assert (not (= x04 x74)))
(assert (not (= x04 x84)))
(assert (not (= x14 (_ bv1 8))))
(assert (not (= x14 x34)))
(assert (not (= x14 (_ bv2 8))))
(assert (not (= x14 x54)))
(assert (not (= x14 (_ bv3 8))))
(assert (not (= x14 x74)))
(assert (not (= x14 x84)))
(assert (not (= (_ bv1 8) x34)))
(assert (not (= (_ bv1 8) (_ bv2 8))))
(assert (not (= (_ bv1 8) x54)))
(assert (not (= (_ bv1 8) (_ bv3 8))))
(assert (not (= (_ bv1 8) x74)))
(assert (not (= (_ bv1 8) x84)))
(assert (not (= x34 (_ bv2 8))))
(assert (not (= x34 x54)))
(assert (not (= x34 (_ bv3 8))))
(assert (not (= x34 x74)))
(assert (not (= x34 x84)))
(assert (not (= (_ bv2 8) x54)))
(assert (not (= (_ bv2 8) (_ bv3 8))))
(assert (not (= (_ bv2 8) x74)))
(assert (not (= (_ bv2 8) x84)))
(assert (not (= x54 (_ bv3 8))))
(assert (not (= x54 x74)))
(assert (not (= x54 x84)))
(assert (not (= (_ bv3 8) x74)))
(assert (not (= (_ bv3 8) x84)))
(assert (not (= x74 x84)))
(assert (not (= x05 (_ bv8 8))))
(assert (not (= x05 x25)))
(assert (not (= x05 x35)))
(assert (not (= x05 (_ bv4 8))))
(assert (not (= x05 (_ bv1 8))))
(assert (not (= x05 (_ bv2 8))))
(assert (not (= x05 (_ bv6 8))))
(assert (not (= x05 x85)))
(assert (not (= (_ bv8 8) x25)))
(assert (not (= (_ bv8 8) x35)))
(assert (not (= (_ bv8 8) (_ bv4 8))))
(assert (not (= (_ bv8 8) (_ bv1 8))))
(assert (not (= (_ bv8 8) (_ bv2 8))))
(assert (not (= (_ bv8 8) (_ bv6 8))))
(assert (not (= (_ bv8 8) x85)))
(assert (not (= x25 x35)))
(assert (not (= x25 (_ bv4 8))))
(assert (not (= x25 (_ bv1 8))))
(assert (not (= x25 (_ bv2 8))))
(assert (not (= x25 (_ bv6 8))))
(assert (not (= x25 x85)))
(assert (not (= x35 (_ bv4 8))))
(assert (not (= x35 (_ bv1 8))))
(assert (not (= x35 (_ bv2 8))))
(assert (not (= x35 (_ bv6 8))))
(assert (not (= x35 x85)))
(assert (not (= (_ bv4 8) (_ bv1 8))))
(assert (not (= (_ bv4 8) (_ bv2 8))))
(assert (not (= (_ bv4 8) (_ bv6 8))))
(assert (not (= (_ bv4 8) x85)))
(assert (not (= (_ bv1 8) (_ bv2 8))))
(assert (not (= (_ bv1 8) (_ bv6 8))))
(assert (not (= (_ bv1 8) x85)))
(assert (not (= (_ bv2 8) (_ bv6 8))))
(assert (not (= (_ bv2 8) x85)))
(assert (not (= (_ bv6 8) x85)))
(assert (not (= (_ bv4 8) x16)))
(assert (not (= (_ bv4 8) x26)))
(assert (not (= (_ bv4 8) x36)))
(assert (not (= (_ bv4 8) (_ bv1 8))))
(assert (not (= (_ bv4 8) x56)))
(assert (not (= (_ bv4 8) x66)))
(assert (not (= (_ bv4 8) x76)))
(assert (not (= (_ bv4 8) (_ bv7 8))))
(assert (not (= x16 x26)))
(assert (not (= x16 x36)))
(assert (not (= x16 (_ bv1 8))))
(assert (not (= x16 x56)))
(assert (not (= x16 x66)))
(assert (not (= x16 x76)))
(assert (not (= x16 (_ bv7 8))))
(assert (not (= x26 x36)))
(assert (not (= x26 (_ bv1 8))))
(assert (not (= x26 x56)))
(assert (not (= x26 x66)))
(assert (not (= x26 x76)))
(assert (not (= x26 (_ bv7 8))))
(assert (not (= x36 (_ bv1 8))))
(assert (not (= x36 x56)))
(assert (not (= x36 x66)))
(assert (not (= x36 x76)))
(assert (not (= x36 (_ bv7 8))))
(assert (not (= (_ bv1 8) x56)))
(assert (not (= (_ bv1 8) x66)))
(assert (not (= (_ bv1 8) x76)))
(assert (not (= (_ bv1 8) (_ bv7 8))))
(assert (not (= x56 x66)))
(assert (not (= x56 x76)))
(assert (not (= x56 (_ bv7 8))))
(assert (not (= x66 x76)))
(assert (not (= x66 (_ bv7 8))))
(assert (not (= x76 (_ bv7 8))))
(assert (not (= x07 (_ bv6 8))))
(assert (not (= x07 x27)))
(assert (not (= x07 (_ bv2 8))))
(assert (not (= x07 x47)))
(assert (not (= x07 x57)))
(assert (not (= x07 (_ bv8 8))))
(assert (not (= x07 (_ bv4 8))))
(assert (not (= x07 x87)))
(assert (not (= (_ bv6 8) x27)))
(assert (not (= (_ bv6 8) (_ bv2 8))))
(assert (not (= (_ bv6 8) x47)))
(assert (not (= (_ bv6 8) x57)))
(assert (not (= (_ bv6 8) (_ bv8 8))))
(assert (not (= (_ bv6 8) (_ bv4 8))))
(assert (not (= (_ bv6 8) x87)))
(assert (not (= x27 (_ bv2 8))))
(assert (not (= x27 x47)))
(assert (not (= x27 x57)))
(assert (not (= x27 (_ bv8 8))))
(assert (not (= x27 (_ bv4 8))))
(assert (not (= x27 x87)))
(assert (not (= (_ bv2 8) x47)))
(assert (not (= (_ bv2 8) x57)))
(assert (not (= (_ bv2 8) (_ bv8 8))))
(assert (not (= (_ bv2 8) (_ bv4 8))))
(assert (not (= (_ bv2 8) x87)))
(assert (not (= x47 x57)))
(assert (not (= x47 (_ bv8 8))))
(assert (not (= x47 (_ bv4 8))))
(assert (not (= x47 x87)))
(assert (not (= x57 (_ bv8 8))))
(assert (not (= x57 (_ bv4 8))))
(assert (not (= x57 x87)))
(assert (not (= (_ bv8 8) (_ bv4 8))))
(assert (not (= (_ bv8 8) x87)))
(assert (not (= (_ bv4 8) x87)))
(assert (not (= x08 x18)))
(assert (not (= x08 x28)))
(assert (not (= x08 (_ bv8 8))))
(assert (not (= x08 (_ bv9 8))))
(assert (not (= x08 x58)))
(assert (not (= x08 x68)))
(assert (not (= x08 x78)))
(assert (not (= x08 x88)))
(assert (not (= x18 x28)))
(assert (not (= x18 (_ bv8 8))))
(assert (not (= x18 (_ bv9 8))))
(assert (not (= x18 x58)))
(assert (not (= x18 x68)))
(assert (not (= x18 x78)))
(assert (not (= x18 x88)))
(assert (not (= x28 (_ bv8 8))))
(assert (not (= x28 (_ bv9 8))))
(assert (not (= x28 x58)))
(assert (not (= x28 x68)))
(assert (not (= x28 x78)))
(assert (not (= x28 x88)))
(assert (not (= (_ bv8 8) (_ bv9 8))))
(assert (not (= (_ bv8 8) x58)))
(assert (not (= (_ bv8 8) x68)))
(assert (not (= (_ bv8 8) x78)))
(assert (not (= (_ bv8 8) x88)))
(assert (not (= (_ bv9 8) x58)))
(assert (not (= (_ bv9 8) x68)))
(assert (not (= (_ bv9 8) x78)))
(assert (not (= (_ bv9 8) x88)))
(assert (not (= x58 x68)))
(assert (not (= x58 x78)))
(assert (not (= x58 x88)))
(assert (not (= x68 x78)))
(assert (not (= x68 x88)))
(assert (not (= x78 x88)))
(assert (not (= x00 (_ bv8 8))))
(assert (not (= x00 x02)))
(assert (not (= x00 x10)))
(assert (not (= x00 x11)))
(assert (not (= x00 (_ bv3 8))))
(assert (not (= x00 (_ bv5 8))))
(assert (not (= x00 x21)))
(assert (not (= x00 (_ bv6 8))))
(assert (not (= (_ bv8 8) x02)))
(assert (not (= (_ bv8 8) x10)))
(assert (not (= (_ bv8 8) x11)))
(assert (not (= (_ bv8 8) (_ bv3 8))))
(assert (not (= (_ bv8 8) (_ bv5 8))))
(assert (not (= (_ bv8 8) x21)))
(assert (not (= (_ bv8 8) (_ bv6 8))))
(assert (not (= x02 x10)))
(assert (not (= x02 x11)))
(assert (not (= x02 (_ bv3 8))))
(assert (not (= x02 (_ bv5 8))))
(assert (not (= x02 x21)))
(assert (not (= x02 (_ bv6 8))))
(assert (not (= x10 x11)))
(assert (not (= x10 (_ bv3 8))))
(assert (not (= x10 (_ bv5 8))))
(assert (not (= x10 x21)))
(assert (not (= x10 (_ bv6 8))))
(assert (not (= x11 (_ bv3 8))))
(assert (not (= x11 (_ bv5 8))))
(assert (not (= x11 x21)))
(assert (not (= x11 (_ bv6 8))))
(assert (not (= (_ bv3 8) (_ bv5 8))))
(assert (not (= (_ bv3 8) x21)))
(assert (not (= (_ bv3 8) (_ bv6 8))))
(assert (not (= (_ bv5 8) x21)))
(assert (not (= (_ bv5 8) (_ bv6 8))))
(assert (not (= x21 (_ bv6 8))))
(assert (not (= (_ bv7 8) x04)))
(assert (not (= (_ bv7 8) x05)))
(assert (not (= (_ bv7 8) (_ bv9 8))))
(assert (not (= (_ bv7 8) x14)))
(assert (not (= (_ bv7 8) (_ bv8 8))))
(assert (not (= (_ bv7 8) x23)))
(assert (not (= (_ bv7 8) (_ bv1 8))))
(assert (not (= (_ bv7 8) x25)))
(assert (not (= x04 x05)))
(assert (not (= x04 (_ bv9 8))))
(assert (not (= x04 x14)))
(assert (not (= x04 (_ bv8 8))))
(assert (not (= x04 x23)))
(assert (not (= x04 (_ bv1 8))))
(assert (not (= x04 x25)))
(assert (not (= x05 (_ bv9 8))))
(assert (not (= x05 x14)))
(assert (not (= x05 (_ bv8 8))))
(assert (not (= x05 x23)))
(assert (not (= x05 (_ bv1 8))))
(assert (not (= x05 x25)))
(assert (not (= (_ bv9 8) x14)))
(assert (not (= (_ bv9 8) (_ bv8 8))))
(assert (not (= (_ bv9 8) x23)))
(assert (not (= (_ bv9 8) (_ bv1 8))))
(assert (not (= (_ bv9 8) x25)))
(assert (not (= x14 (_ bv8 8))))
(assert (not (= x14 x23)))
(assert (not (= x14 (_ bv1 8))))
(assert (not (= x14 x25)))
(assert (not (= (_ bv8 8) x23)))
(assert (not (= (_ bv8 8) (_ bv1 8))))
(assert (not (= (_ bv8 8) x25)))
(assert (not (= x23 (_ bv1 8))))
(assert (not (= x23 x25)))
(assert (not (= (_ bv1 8) x25)))
(assert (not (= (_ bv4 8) x07)))
(assert (not (= (_ bv4 8) x08)))
(assert (not (= (_ bv4 8) x16)))
(assert (not (= (_ bv4 8) (_ bv6 8))))
(assert (not (= (_ bv4 8) x18)))
(assert (not (= (_ bv4 8) x26)))
(assert (not (= (_ bv4 8) x27)))
(assert (not (= (_ bv4 8) x28)))
(assert (not (= x07 x08)))
(assert (not (= x07 x16)))
(assert (not (= x07 (_ bv6 8))))
(assert (not (= x07 x18)))
(assert (not (= x07 x26)))
(assert (not (= x07 x27)))
(assert (not (= x07 x28)))
(assert (not (= x08 x16)))
(assert (not (= x08 (_ bv6 8))))
(assert (not (= x08 x18)))
(assert (not (= x08 x26)))
(assert (not (= x08 x27)))
(assert (not (= x08 x28)))
(assert (not (= x16 (_ bv6 8))))
(assert (not (= x16 x18)))
(assert (not (= x16 x26)))
(assert (not (= x16 x27)))
(assert (not (= x16 x28)))
(assert (not (= (_ bv6 8) x18)))
(assert (not (= (_ bv6 8) x26)))
(assert (not (= (_ bv6 8) x27)))
(assert (not (= (_ bv6 8) x28)))
(assert (not (= x18 x26)))
(assert (not (= x18 x27)))
(assert (not (= x18 x28)))
(assert (not (= x26 x27)))
(assert (not (= x26 x28)))
(assert (not (= x27 x28)))
(assert (not (= x30 (_ bv9 8))))
(assert (not (= x30 (_ bv4 8))))
(assert (not (= x30 (_ bv3 8))))
(assert (not (= x30 x41)))
(assert (not (= x30 x42)))
(assert (not (= x30 x50)))
(assert (not (= x30 (_ bv7 8))))
(assert (not (= x30 (_ bv8 8))))
(assert (not (= (_ bv9 8) (_ bv4 8))))
(assert (not (= (_ bv9 8) (_ bv3 8))))
(assert (not (= (_ bv9 8) x41)))
(assert (not (= (_ bv9 8) x42)))
(assert (not (= (_ bv9 8) x50)))
(assert (not (= (_ bv9 8) (_ bv7 8))))
(assert (not (= (_ bv9 8) (_ bv8 8))))
(assert (not (= (_ bv4 8) (_ bv3 8))))
(assert (not (= (_ bv4 8) x41)))
(assert (not (= (_ bv4 8) x42)))
(assert (not (= (_ bv4 8) x50)))
(assert (not (= (_ bv4 8) (_ bv7 8))))
(assert (not (= (_ bv4 8) (_ bv8 8))))
(assert (not (= (_ bv3 8) x41)))
(assert (not (= (_ bv3 8) x42)))
(assert (not (= (_ bv3 8) x50)))
(assert (not (= (_ bv3 8) (_ bv7 8))))
(assert (not (= (_ bv3 8) (_ bv8 8))))
(assert (not (= x41 x42)))
(assert (not (= x41 x50)))
(assert (not (= x41 (_ bv7 8))))
(assert (not (= x41 (_ bv8 8))))
(assert (not (= x42 x50)))
(assert (not (= x42 (_ bv7 8))))
(assert (not (= x42 (_ bv8 8))))
(assert (not (= x50 (_ bv7 8))))
(assert (not (= x50 (_ bv8 8))))
(assert (not (= (_ bv7 8) (_ bv8 8))))
(assert (not (= x33 x34)))
(assert (not (= x33 x35)))
(assert (not (= x33 x43)))
(assert (not (= x33 (_ bv2 8))))
(assert (not (= x33 (_ bv4 8))))
(assert (not (= x33 (_ bv3 8))))
(assert (not (= x33 x54)))
(assert (not (= x33 (_ bv1 8))))
(assert (not (= x34 x35)))
(assert (not (= x34 x43)))
(assert (not (= x34 (_ bv2 8))))
(assert (not (= x34 (_ bv4 8))))
(assert (not (= x34 (_ bv3 8))))
(assert (not (= x34 x54)))
(assert (not (= x34 (_ bv1 8))))
(assert (not (= x35 x43)))
(assert (not (= x35 (_ bv2 8))))
(assert (not (= x35 (_ bv4 8))))
(assert (not (= x35 (_ bv3 8))))
(assert (not (= x35 x54)))
(assert (not (= x35 (_ bv1 8))))
(assert (not (= x43 (_ bv2 8))))
(assert (not (= x43 (_ bv4 8))))
(assert (not (= x43 (_ bv3 8))))
(assert (not (= x43 x54)))
(assert (not (= x43 (_ bv1 8))))
(assert (not (= (_ bv2 8) (_ bv4 8))))
(assert (not (= (_ bv2 8) (_ bv3 8))))
(assert (not (= (_ bv2 8) x54)))
(assert (not (= (_ bv2 8) (_ bv1 8))))
(assert (not (= (_ bv4 8) (_ bv3 8))))
(assert (not (= (_ bv4 8) x54)))
(assert (not (= (_ bv4 8) (_ bv1 8))))
(assert (not (= (_ bv3 8) x54)))
(assert (not (= (_ bv3 8) (_ bv1 8))))
(assert (not (= x54 (_ bv1 8))))
(assert (not (= x36 (_ bv2 8))))
(assert (not (= x36 (_ bv8 8))))
(assert (not (= x36 (_ bv1 8))))
(assert (not (= x36 x47)))
(assert (not (= x36 (_ bv9 8))))
(assert (not (= x36 x56)))
(assert (not (= x36 x57)))
(assert (not (= x36 x58)))
(assert (not (= (_ bv2 8) (_ bv8 8))))
(assert (not (= (_ bv2 8) (_ bv1 8))))
(assert (not (= (_ bv2 8) x47)))
(assert (not (= (_ bv2 8) (_ bv9 8))))
(assert (not (= (_ bv2 8) x56)))
(assert (not (= (_ bv2 8) x57)))
(assert (not (= (_ bv2 8) x58)))
(assert (not (= (_ bv8 8) (_ bv1 8))))
(assert (not (= (_ bv8 8) x47)))
(assert (not (= (_ bv8 8) (_ bv9 8))))
(assert (not (= (_ bv8 8) x56)))
(assert (not (= (_ bv8 8) x57)))
(assert (not (= (_ bv8 8) x58)))
(assert (not (= (_ bv1 8) x47)))
(assert (not (= (_ bv1 8) (_ bv9 8))))
(assert (not (= (_ bv1 8) x56)))
(assert (not (= (_ bv1 8) x57)))
(assert (not (= (_ bv1 8) x58)))
(assert (not (= x47 (_ bv9 8))))
(assert (not (= x47 x56)))
(assert (not (= x47 x57)))
(assert (not (= x47 x58)))
(assert (not (= (_ bv9 8) x56)))
(assert (not (= (_ bv9 8) x57)))
(assert (not (= (_ bv9 8) x58)))
(assert (not (= x56 x57)))
(assert (not (= x56 x58)))
(assert (not (= x57 x58)))
(assert (not (= (_ bv6 8) (_ bv1 8))))
(assert (not (= (_ bv6 8) x62)))
(assert (not (= (_ bv6 8) x70)))
(assert (not (= (_ bv6 8) x71)))
(assert (not (= (_ bv6 8) x72)))
(assert (not (= (_ bv6 8) x80)))
(assert (not (= (_ bv6 8) (_ bv3 8))))
(assert (not (= (_ bv6 8) x82)))
(assert (not (= (_ bv1 8) x62)))
(assert (not (= (_ bv1 8) x70)))
(assert (not (= (_ bv1 8) x71)))
(assert (not (= (_ bv1 8) x72)))
(assert (not (= (_ bv1 8) x80)))
(assert (not (= (_ bv1 8) (_ bv3 8))))
(assert (not (= (_ bv1 8) x82)))
(assert (not (= x62 x70)))
(assert (not (= x62 x71)))
(assert (not (= x62 x72)))
(assert (not (= x62 x80)))
(assert (not (= x62 (_ bv3 8))))
(assert (not (= x62 x82)))
(assert (not (= x70 x71)))
(assert (not (= x70 x72)))
(assert (not (= x70 x80)))
(assert (not (= x70 (_ bv3 8))))
(assert (not (= x70 x82)))
(assert (not (= x71 x72)))
(assert (not (= x71 x80)))
(assert (not (= x71 (_ bv3 8))))
(assert (not (= x71 x82)))
(assert (not (= x72 x80)))
(assert (not (= x72 (_ bv3 8))))
(assert (not (= x72 x82)))
(assert (not (= x80 (_ bv3 8))))
(assert (not (= x80 x82)))
(assert (not (= (_ bv3 8) x82)))
(assert (not (= x63 (_ bv3 8))))
(assert (not (= x63 (_ bv2 8))))
(assert (not (= x63 x73)))
(assert (not (= x63 x74)))
(assert (not (= x63 (_ bv6 8))))
(assert (not (= x63 (_ bv5 8))))
(assert (not (= x63 x84)))
(assert (not (= x63 x85)))
(assert (not (= (_ bv3 8) (_ bv2 8))))
(assert (not (= (_ bv3 8) x73)))
(assert (not (= (_ bv3 8) x74)))
(assert (not (= (_ bv3 8) (_ bv6 8))))
(assert (not (= (_ bv3 8) (_ bv5 8))))
(assert (not (= (_ bv3 8) x84)))
(assert (not (= (_ bv3 8) x85)))
(assert (not (= (_ bv2 8) x73)))
(assert (not (= (_ bv2 8) x74)))
(assert (not (= (_ bv2 8) (_ bv6 8))))
(assert (not (= (_ bv2 8) (_ bv5 8))))
(assert (not (= (_ bv2 8) x84)))
(assert (not (= (_ bv2 8) x85)))
(assert (not (= x73 x74)))
(assert (not (= x73 (_ bv6 8))))
(assert (not (= x73 (_ bv5 8))))
(assert (not (= x73 x84)))
(assert (not (= x73 x85)))
(assert (not (= x74 (_ bv6 8))))
(assert (not (= x74 (_ bv5 8))))
(assert (not (= x74 x84)))
(assert (not (= x74 x85)))
(assert (not (= (_ bv6 8) (_ bv5 8))))
(assert (not (= (_ bv6 8) x84)))
(assert (not (= (_ bv6 8) x85)))
(assert (not (= (_ bv5 8) x84)))
(assert (not (= (_ bv5 8) x85)))
(assert (not (= x84 x85)))
(assert (not (= x66 (_ bv8 8))))
(assert (not (= x66 x68)))
(assert (not (= x66 x76)))
(assert (not (= x66 (_ bv4 8))))
(assert (not (= x66 x78)))
(assert (not (= x66 (_ bv7 8))))
(assert (not (= x66 x87)))
(assert (not (= x66 x88)))
(assert (not (= (_ bv8 8) x68)))
(assert (not (= (_ bv8 8) x76)))
(assert (not (= (_ bv8 8) (_ bv4 8))))
(assert (not (= (_ bv8 8) x78)))
(assert (not (= (_ bv8 8) (_ bv7 8))))
(assert (not (= (_ bv8 8) x87)))
(assert (not (= (_ bv8 8) x88)))
(assert (not (= x68 x76)))
(assert (not (= x68 (_ bv4 8))))
(assert (not (= x68 x78)))
(assert (not (= x68 (_ bv7 8))))
(assert (not (= x68 x87)))
(assert (not (= x68 x88)))
(assert (not (= x76 (_ bv4 8))))
(assert (not (= x76 x78)))
(assert (not (= x76 (_ bv7 8))))
(assert (not (= x76 x87)))
(assert (not (= x76 x88)))
(assert (not (= (_ bv4 8) x78)))
(assert (not (= (_ bv4 8) (_ bv7 8))))
(assert (not (= (_ bv4 8) x87)))
(assert (not (= (_ bv4 8) x88)))
(assert (not (= x78 (_ bv7 8))))
(assert (not (= x78 x87)))
(assert (not (= x78 x88)))
(assert (not (= (_ bv7 8) x87)))
(assert (not (= (_ bv7 8) x88)))
(assert (not (= x87 x88)))
(check-sat)
(exit)
